 &control
 /
 &system
    ibrav = 14,
    celldm(1) = 12.0,
    celldm(2) = 1.0,
    celldm(3) = 1.0,
    celldm(4) = 0.0,
    celldm(5) = 0.0,
    celldm(6) = 0.0,
    nat  = 5,
    ntyp = 2,
 /
 &electrons
 /
 &ions
 /
 &cell
 /
ATOMIC_SPECIES
H 1.00d0 H.blyp-vbc.UPF
C 1.00d0 H.blyp-vbc.UPF
ATOMIC_POSITIONS (bohr)
C 0.0 0.0 0.0
H -1.68182379513 -1.18922976576 0.0
H 0.0 1.18922976576 -1.68182379513
H 0.0 1.18922976576 1.68182379513
H 1.68182379513 -1.18922976576 0.0